p edge 250 3109
e 1 2
e 1 3
e 1 5
e 1 16
e 1 22
e 1 27
e 1 28
e 1 32
e 1 39
e 1 46
e 1 60
e 1 67
e 1 69
e 1 72
e 1 73
e 1 77
e 1 88
e 1 114
e 1 151
e 1 163
e 1 172
e 1 186
e 1 187
e 1 196
e 1 210
e 1 217
e 1 221
e 1 226
e 1 242
e 2 9
e 2 30
e 2 36
e 2 42
e 2 53
e 2 57
e 2 60
e 2 76
e 2 78
e 2 83
e 2 86
e 2 88
e 2 101
e 2 115
e 2 122
e 2 130
e 2 156
e 2 174
e 2 179
e 2 188
e 2 191
e 2 203
e 2 204
e 2 213
e 2 217
e 2 221
e 2 228
e 2 236
e 2 240
e 2 250
e 3 6
e 3 21
e 3 36
e 3 41
e 3 44
e 3 53
e 3 59
e 3 74
e 3 78
e 3 102
e 3 109
e 3 116
e 3 142
e 3 144
e 3 151
e 3 155
e 3 157
e 3 159
e 3 174
e 3 177
e 3 194
e 3 195
e 3 206
e 3 208
e 3 232
e 3 246
e 4 8
e 4 9
e 4 12
e 4 21
e 4 35
e 4 40
e 4 42
e 4 52
e 4 55
e 4 65
e 4 74
e 4 82
e 4 87
e 4 93
e 4 104
e 4 111
e 4 114
e 4 115
e 4 123
e 4 127
e 4 128
e 4 131
e 4 137
e 4 148
e 4 151
e 4 157
e 4 172
e 4 173
e 4 180
e 4 183
e 4 187
e 4 195
e 4 219
e 4 240
e 4 247
e 5 22
e 5 42
e 5 44
e 5 58
e 5 71
e 5 101
e 5 110
e 5 121
e 5 142
e 5 166
e 5 174
e 5 179
e 5 201
e 5 208
e 5 219
e 5 228
e 6 11
e 6 38
e 6 41
e 6 51
e 6 53
e 6 59
e 6 63
e 6 64
e 6 68
e 6 77
e 6 78
e 6 88
e 6 103
e 6 105
e 6 113
e 6 127
e 6 135
e 6 144
e 6 150
e 6 152
e 6 156
e 6 159
e 6 163
e 6 164
e 6 168
e 6 173
e 6 181
e 6 194
e 6 198
e 6 202
e 6 208
e 6 214
e 6 217
e 6 246
e 6 247
e 7 24
e 7 56
e 7 65
e 7 74
e 7 82
e 7 85
e 7 102
e 7 124
e 7 135
e 7 139
e 7 159
e 7 171
e 7 173
e 7 175
e 7 203
e 7 223
e 7 240
e 8 10
e 8 15
e 8 20
e 8 51
e 8 62
e 8 70
e 8 76
e 8 77
e 8 78
e 8 87
e 8 108
e 8 142
e 8 150
e 8 161
e 8 165
e 8 167
e 8 171
e 8 193
e 8 194
e 8 204
e 8 212
e 8 221
e 8 223
e 8 245
e 9 16
e 9 35
e 9 39
e 9 48
e 9 50
e 9 69
e 9 96
e 9 102
e 9 112
e 9 114
e 9 131
e 9 137
e 9 141
e 9 151
e 9 171
e 9 178
e 9 180
e 9 209
e 9 246
e 10 18
e 10 30
e 10 32
e 10 41
e 10 44
e 10 48
e 10 54
e 10 65
e 10 78
e 10 120
e 10 122
e 10 126
e 10 128
e 10 137
e 10 144
e 10 154
e 10 159
e 10 164
e 10 168
e 10 171
e 10 176
e 10 181
e 10 208
e 10 213
e 10 233
e 10 246
e 11 25
e 11 29
e 11 33
e 11 37
e 11 58
e 11 74
e 11 75
e 11 129
e 11 131
e 11 140
e 11 141
e 11 144
e 11 154
e 11 158
e 11 193
e 11 199
e 11 231
e 11 235
e 11 243
e 12 19
e 12 37
e 12 74
e 12 103
e 12 128
e 12 138
e 12 160
e 12 162
e 12 167
e 12 180
e 12 187
e 12 190
e 12 214
e 12 224
e 12 236
e 12 243
e 12 245
e 13 41
e 13 50
e 13 60
e 13 63
e 13 88
e 13 89
e 13 90
e 13 99
e 13 104
e 13 137
e 13 142
e 13 143
e 13 150
e 13 167
e 13 169
e 13 182
e 13 183
e 13 190
e 13 199
e 13 203
e 13 204
e 13 212
e 13 242
e 14 15
e 14 18
e 14 38
e 14 47
e 14 54
e 14 57
e 14 65
e 14 84
e 14 87
e 14 100
e 14 113
e 14 114
e 14 127
e 14 145
e 14 157
e 14 162
e 14 163
e 14 164
e 14 174
e 14 179
e 14 180
e 14 186
e 14 217
e 14 225
e 14 226
e 14 234
e 14 236
e 14 238
e 14 244
e 15 25
e 15 30
e 15 40
e 15 45
e 15 48
e 15 50
e 15 67
e 15 73
e 15 82
e 15 88
e 15 94
e 15 103
e 15 104
e 15 108
e 15 131
e 15 135
e 15 141
e 15 148
e 15 172
e 15 176
e 15 210
e 15 211
e 15 213
e 15 219
e 15 234
e 15 239
e 15 241
e 16 23
e 16 32
e 16 35
e 16 49
e 16 54
e 16 72
e 16 88
e 16 106
e 16 126
e 16 128
e 16 132
e 16 140
e 16 143
e 16 146
e 16 155
e 16 167
e 16 169
e 16 171
e 16 175
e 16 199
e 16 210
e 16 213
e 16 217
e 16 223
e 16 236
e 16 241
e 16 243
e 17 25
e 17 39
e 17 53
e 17 58
e 17 61
e 17 73
e 17 85
e 17 88
e 17 100
e 17 114
e 17 146
e 17 147
e 17 148
e 17 158
e 17 177
e 17 178
e 17 215
e 17 226
e 17 247
e 18 21
e 18 25
e 18 40
e 18 53
e 18 57
e 18 59
e 18 65
e 18 79
e 18 81
e 18 92
e 18 93
e 18 95
e 18 104
e 18 108
e 18 143
e 18 145
e 18 175
e 18 180
e 18 190
e 18 198
e 18 215
e 18 230
e 18 236
e 18 239
e 19 22
e 19 25
e 19 36
e 19 59
e 19 64
e 19 67
e 19 84
e 19 101
e 19 106
e 19 126
e 19 132
e 19 137
e 19 146
e 19 148
e 19 178
e 19 182
e 19 186
e 19 193
e 19 221
e 19 242
e 19 243
e 20 22
e 20 32
e 20 41
e 20 56
e 20 68
e 20 71
e 20 75
e 20 100
e 20 108
e 20 121
e 20 130
e 20 135
e 20 172
e 20 178
e 20 180
e 20 182
e 20 186
e 20 195
e 20 196
e 20 209
e 20 218
e 20 240
e 20 241
e 21 36
e 21 37
e 21 43
e 21 59
e 21 61
e 21 82
e 21 88
e 21 120
e 21 131
e 21 132
e 21 169
e 21 186
e 21 192
e 21 195
e 21 210
e 21 222
e 21 230
e 21 245
e 22 23
e 22 52
e 22 55
e 22 72
e 22 78
e 22 82
e 22 85
e 22 86
e 22 89
e 22 92
e 22 108
e 22 116
e 22 123
e 22 131
e 22 132
e 22 134
e 22 142
e 22 172
e 22 178
e 22 210
e 22 242
e 23 46
e 23 49
e 23 55
e 23 82
e 23 94
e 23 137
e 23 138
e 23 144
e 23 155
e 23 166
e 23 194
e 23 210
e 23 219
e 23 230
e 23 237
e 24 34
e 24 36
e 24 40
e 24 54
e 24 55
e 24 79
e 24 82
e 24 84
e 24 90
e 24 93
e 24 95
e 24 103
e 24 117
e 24 170
e 24 175
e 24 177
e 24 191
e 24 198
e 24 201
e 24 226
e 24 230
e 24 244
e 24 245
e 25 33
e 25 54
e 25 55
e 25 60
e 25 74
e 25 82
e 25 98
e 25 100
e 25 103
e 25 104
e 25 107
e 25 117
e 25 138
e 25 140
e 25 155
e 25 173
e 25 175
e 25 180
e 25 190
e 25 192
e 25 204
e 25 209
e 25 224
e 25 233
e 25 241
e 26 37
e 26 43
e 26 48
e 26 57
e 26 59
e 26 62
e 26 77
e 26 90
e 26 101
e 26 117
e 26 134
e 26 146
e 26 169
e 26 175
e 26 179
e 26 186
e 26 192
e 26 201
e 26 203
e 26 208
e 26 218
e 26 226
e 26 247
e 26 248
e 27 45
e 27 46
e 27 59
e 27 60
e 27 69
e 27 72
e 27 75
e 27 109
e 27 110
e 27 118
e 27 182
e 27 193
e 27 218
e 27 225
e 27 230
e 27 232
e 27 245
e 28 33
e 28 35
e 28 39
e 28 47
e 28 50
e 28 55
e 28 75
e 28 78
e 28 90
e 28 96
e 28 130
e 28 168
e 28 182
e 28 183
e 28 194
e 28 197
e 28 198
e 28 208
e 28 250
e 29 34
e 29 59
e 29 68
e 29 91
e 29 92
e 29 97
e 29 107
e 29 113
e 29 118
e 29 132
e 29 140
e 29 157
e 29 159
e 29 164
e 29 165
e 29 172
e 29 189
e 29 204
e 29 208
e 29 214
e 29 218
e 29 219
e 29 236
e 29 243
e 30 34
e 30 37
e 30 50
e 30 65
e 30 82
e 30 98
e 30 104
e 30 106
e 30 116
e 30 117
e 30 122
e 30 125
e 30 163
e 30 165
e 30 168
e 30 171
e 30 173
e 30 182
e 30 196
e 30 197
e 30 202
e 30 203
e 30 214
e 30 220
e 30 225
e 30 237
e 30 245
e 31 43
e 31 44
e 31 50
e 31 57
e 31 74
e 31 88
e 31 103
e 31 119
e 31 126
e 31 151
e 31 158
e 31 165
e 31 183
e 31 186
e 31 188
e 31 201
e 31 249
e 32 38
e 32 39
e 32 40
e 32 42
e 32 55
e 32 71
e 32 72
e 32 95
e 32 102
e 32 110
e 32 118
e 32 132
e 32 137
e 32 143
e 32 188
e 32 196
e 32 198
e 32 207
e 32 209
e 32 217
e 32 225
e 32 250
e 33 62
e 33 80
e 33 103
e 33 126
e 33 128
e 33 139
e 33 142
e 33 151
e 33 155
e 33 176
e 33 179
e 33 184
e 33 187
e 33 193
e 33 221
e 33 225
e 33 226
e 33 228
e 33 232
e 33 242
e 33 247
e 34 45
e 34 61
e 34 63
e 34 68
e 34 72
e 34 74
e 34 88
e 34 89
e 34 98
e 34 105
e 34 107
e 34 111
e 34 112
e 34 117
e 34 126
e 34 130
e 34 134
e 34 139
e 34 140
e 34 141
e 34 143
e 34 155
e 34 157
e 34 160
e 34 166
e 34 170
e 34 178
e 34 195
e 34 203
e 34 211
e 34 217
e 34 219
e 34 234
e 34 241
e 34 248
e 35 54
e 35 59
e 35 66
e 35 106
e 35 114
e 35 118
e 35 123
e 35 130
e 35 137
e 35 141
e 35 144
e 35 147
e 35 148
e 35 156
e 35 166
e 35 181
e 35 186
e 35 187
e 35 229
e 35 232
e 36 40
e 36 50
e 36 58
e 36 112
e 36 116
e 36 118
e 36 126
e 36 133
e 36 135
e 36 137
e 36 144
e 36 149
e 36 156
e 36 157
e 36 158
e 36 173
e 36 213
e 36 231
e 36 235
e 36 241
e 36 243
e 37 38
e 37 39
e 37 43
e 37 57
e 37 67
e 37 68
e 37 74
e 37 77
e 37 93
e 37 105
e 37 114
e 37 115
e 37 121
e 37 137
e 37 142
e 37 143
e 37 144
e 37 162
e 37 163
e 37 166
e 37 168
e 37 191
e 37 204
e 37 228
e 38 64
e 38 71
e 38 73
e 38 77
e 38 78
e 38 90
e 38 106
e 38 127
e 38 156
e 38 159
e 38 162
e 38 163
e 38 188
e 38 232
e 38 237
e 39 51
e 39 53
e 39 63
e 39 70
e 39 71
e 39 84
e 39 89
e 39 109
e 39 138
e 39 190
e 39 205
e 39 236
e 39 240
e 39 241
e 39 244
e 40 41
e 40 69
e 40 76
e 40 77
e 40 101
e 40 102
e 40 117
e 40 139
e 40 149
e 40 155
e 40 157
e 40 160
e 40 190
e 40 192
e 40 211
e 40 214
e 40 240
e 41 43
e 41 63
e 41 68
e 41 80
e 41 84
e 41 103
e 41 108
e 41 111
e 41 125
e 41 131
e 41 133
e 41 135
e 41 151
e 41 154
e 41 182
e 41 183
e 41 214
e 41 215
e 41 248
e 42 47
e 42 56
e 42 64
e 42 66
e 42 68
e 42 82
e 42 97
e 42 118
e 42 162
e 42 163
e 42 173
e 42 177
e 42 179
e 42 184
e 42 198
e 42 200
e 42 210
e 42 218
e 42 243
e 43 45
e 43 71
e 43 73
e 43 76
e 43 83
e 43 87
e 43 89
e 43 97
e 43 111
e 43 113
e 43 120
e 43 122
e 43 135
e 43 138
e 43 143
e 43 149
e 43 166
e 43 168
e 43 169
e 43 172
e 43 179
e 43 180
e 43 199
e 43 208
e 43 212
e 44 46
e 44 47
e 44 59
e 44 65
e 44 71
e 44 94
e 44 122
e 44 129
e 44 132
e 44 133
e 44 138
e 44 140
e 44 144
e 44 155
e 44 158
e 44 166
e 44 172
e 44 203
e 44 217
e 44 231
e 44 247
e 45 63
e 45 91
e 45 95
e 45 100
e 45 104
e 45 123
e 45 126
e 45 133
e 45 139
e 45 148
e 45 149
e 45 151
e 45 159
e 45 164
e 45 192
e 45 196
e 45 197
e 45 211
e 45 213
e 45 224
e 45 230
e 45 240
e 45 244
e 45 247
e 45 249
e 46 55
e 46 97
e 46 106
e 46 109
e 46 126
e 46 145
e 46 147
e 46 159
e 46 166
e 46 189
e 46 197
e 46 198
e 46 202
e 46 209
e 46 239
e 46 244
e 46 250
e 47 52
e 47 65
e 47 69
e 47 70
e 47 77
e 47 90
e 47 100
e 47 107
e 47 109
e 47 113
e 47 114
e 47 120
e 47 152
e 47 155
e 47 159
e 47 161
e 47 164
e 47 165
e 47 173
e 47 182
e 47 199
e 47 203
e 47 208
e 47 213
e 47 216
e 47 217
e 47 221
e 48 55
e 48 74
e 48 77
e 48 93
e 48 120
e 48 126
e 48 158
e 48 165
e 48 176
e 48 179
e 48 182
e 48 187
e 48 198
e 48 220
e 49 66
e 49 67
e 49 71
e 49 97
e 49 105
e 49 115
e 49 117
e 49 119
e 49 123
e 49 126
e 49 133
e 49 144
e 49 159
e 49 162
e 49 167
e 49 168
e 49 171
e 49 188
e 49 195
e 49 199
e 49 205
e 49 206
e 49 218
e 49 220
e 49 221
e 49 244
e 49 247
e 50 80
e 50 98
e 50 112
e 50 114
e 50 116
e 50 118
e 50 119
e 50 128
e 50 137
e 50 139
e 50 149
e 50 150
e 50 151
e 50 163
e 50 174
e 50 177
e 50 211
e 50 217
e 50 223
e 51 74
e 51 75
e 51 96
e 51 102
e 51 112
e 51 131
e 51 135
e 51 142
e 51 146
e 51 172
e 51 176
e 51 185
e 51 189
e 51 196
e 51 197
e 51 198
e 51 215
e 51 232
e 51 243
e 51 244
e 51 245
e 51 246
e 52 54
e 52 65
e 52 67
e 52 93
e 52 109
e 52 111
e 52 132
e 52 138
e 52 163
e 52 166
e 52 174
e 52 182
e 52 183
e 52 188
e 52 196
e 52 235
e 53 63
e 53 86
e 53 108
e 53 117
e 53 147
e 53 155
e 53 184
e 53 217
e 54 55
e 54 64
e 54 67
e 54 74
e 54 87
e 54 88
e 54 96
e 54 102
e 54 105
e 54 126
e 54 128
e 54 135
e 54 141
e 54 158
e 54 165
e 54 173
e 54 216
e 54 217
e 54 218
e 54 232
e 54 241
e 54 249
e 55 65
e 55 66
e 55 78
e 55 80
e 55 93
e 55 97
e 55 98
e 55 100
e 55 114
e 55 135
e 55 137
e 55 188
e 55 205
e 55 210
e 55 219
e 55 227
e 55 243
e 55 246
e 56 61
e 56 72
e 56 73
e 56 78
e 56 79
e 56 81
e 56 96
e 56 105
e 56 107
e 56 118
e 56 125
e 56 145
e 56 169
e 56 172
e 56 173
e 56 187
e 56 202
e 56 215
e 56 220
e 56 234
e 56 237
e 56 247
e 57 82
e 57 93
e 57 106
e 57 108
e 57 118
e 57 146
e 57 151
e 57 171
e 57 189
e 57 196
e 57 202
e 57 225
e 57 235
e 57 236
e 57 240
e 57 245
e 58 111
e 58 120
e 58 127
e 58 132
e 58 145
e 58 153
e 58 170
e 58 188
e 58 193
e 58 201
e 58 203
e 58 223
e 58 224
e 58 240
e 58 242
e 58 247
e 59 63
e 59 71
e 59 83
e 59 89
e 59 93
e 59 105
e 59 121
e 59 123
e 59 141
e 59 148
e 59 151
e 59 161
e 59 176
e 59 177
e 59 191
e 59 198
e 59 206
e 59 231
e 59 237
e 60 72
e 60 77
e 60 82
e 60 85
e 60 92
e 60 106
e 60 114
e 60 121
e 60 150
e 60 156
e 60 167
e 60 171
e 60 178
e 60 193
e 60 202
e 60 215
e 60 218
e 60 243
e 60 248
e 61 66
e 61 115
e 61 117
e 61 156
e 61 169
e 61 171
e 61 174
e 61 197
e 61 230
e 61 238
e 61 244
e 61 245
e 62 90
e 62 94
e 62 96
e 62 103
e 62 108
e 62 116
e 62 117
e 62 124
e 62 129
e 62 192
e 62 209
e 62 224
e 62 231
e 62 242
e 62 243
e 63 87
e 63 91
e 63 103
e 63 131
e 63 132
e 63 149
e 63 159
e 63 171
e 63 173
e 63 180
e 63 185
e 63 203
e 63 211
e 63 221
e 64 68
e 64 69
e 64 80
e 64 94
e 64 115
e 64 116
e 64 119
e 64 121
e 64 122
e 64 127
e 64 138
e 64 154
e 64 155
e 64 156
e 64 162
e 64 177
e 64 185
e 64 200
e 64 202
e 64 214
e 64 215
e 64 219
e 64 227
e 64 230
e 64 231
e 64 233
e 64 244
e 65 102
e 65 124
e 65 132
e 65 169
e 65 174
e 65 180
e 65 185
e 65 200
e 65 231
e 65 232
e 65 238
e 65 250
e 66 74
e 66 87
e 66 97
e 66 98
e 66 119
e 66 126
e 66 127
e 66 135
e 66 152
e 66 168
e 66 178
e 66 203
e 66 205
e 66 210
e 66 215
e 66 217
e 66 221
e 66 238
e 66 242
e 66 249
e 67 84
e 67 86
e 67 112
e 67 141
e 67 144
e 67 145
e 67 149
e 67 154
e 67 156
e 67 183
e 67 186
e 67 213
e 67 225
e 67 241
e 67 245
e 67 246
e 67 249
e 68 72
e 68 94
e 68 95
e 68 130
e 68 147
e 68 148
e 68 157
e 68 165
e 68 171
e 68 174
e 68 189
e 68 199
e 68 205
e 68 208
e 68 211
e 68 219
e 68 234
e 68 239
e 68 241
e 68 242
e 68 243
e 68 249
e 69 76
e 69 120
e 69 125
e 69 138
e 69 139
e 69 152
e 69 169
e 69 175
e 69 177
e 69 181
e 69 190
e 69 196
e 69 225
e 69 229
e 69 230
e 70 89
e 70 92
e 70 105
e 70 117
e 70 128
e 70 138
e 70 142
e 70 145
e 70 155
e 70 165
e 70 182
e 70 198
e 70 199
e 70 203
e 70 205
e 70 214
e 70 215
e 70 224
e 70 231
e 70 241
e 70 246
e 70 248
e 71 76
e 71 77
e 71 83
e 71 84
e 71 87
e 71 97
e 71 106
e 71 108
e 71 115
e 71 116
e 71 119
e 71 122
e 71 124
e 71 126
e 71 129
e 71 135
e 71 141
e 71 163
e 71 189
e 71 200
e 71 220
e 71 242
e 72 110
e 72 115
e 72 119
e 72 122
e 72 139
e 72 142
e 72 161
e 72 171
e 72 179
e 72 186
e 72 193
e 72 203
e 72 207
e 72 223
e 72 229
e 73 76
e 73 89
e 73 90
e 73 94
e 73 103
e 73 107
e 73 108
e 73 132
e 73 138
e 73 169
e 73 190
e 73 192
e 73 194
e 73 199
e 73 201
e 73 205
e 73 207
e 73 209
e 73 213
e 73 214
e 73 217
e 73 232
e 74 97
e 74 116
e 74 135
e 74 137
e 74 160
e 74 164
e 74 165
e 74 168
e 74 173
e 74 174
e 74 178
e 74 185
e 74 196
e 74 209
e 74 213
e 74 221
e 74 239
e 75 81
e 75 83
e 75 107
e 75 131
e 75 153
e 75 156
e 75 160
e 75 162
e 75 167
e 75 180
e 75 183
e 75 187
e 75 189
e 75 191
e 75 210
e 75 213
e 75 221
e 75 244
e 76 93
e 76 96
e 76 98
e 76 113
e 76 135
e 76 148
e 76 152
e 76 166
e 76 185
e 76 187
e 76 203
e 76 211
e 76 217
e 76 221
e 76 230
e 76 231
e 77 78
e 77 82
e 77 88
e 77 91
e 77 92
e 77 120
e 77 128
e 77 139
e 77 141
e 77 143
e 77 164
e 77 191
e 77 220
e 77 223
e 77 232
e 77 234
e 77 237
e 77 243
e 77 246
e 78 84
e 78 95
e 78 96
e 78 100
e 78 106
e 78 108
e 78 115
e 78 124
e 78 128
e 78 133
e 78 165
e 78 177
e 78 181
e 78 182
e 78 189
e 78 194
e 78 212
e 78 232
e 78 239
e 78 249
e 79 97
e 79 100
e 79 106
e 79 111
e 79 151
e 79 164
e 79 173
e 79 182
e 79 185
e 79 189
e 79 206
e 79 227
e 79 233
e 79 243
e 80 93
e 80 99
e 80 104
e 80 117
e 80 119
e 80 127
e 80 131
e 80 146
e 80 148
e 80 165
e 80 168
e 80 178
e 80 188
e 80 190
e 80 201
e 80 221
e 80 226
e 80 231
e 80 232
e 80 248
e 81 88
e 81 96
e 81 100
e 81 101
e 81 107
e 81 110
e 81 122
e 81 134
e 81 153
e 81 157
e 81 160
e 81 169
e 81 180
e 81 191
e 81 207
e 82 84
e 82 86
e 82 95
e 82 96
e 82 118
e 82 134
e 82 172
e 82 178
e 82 200
e 82 227
e 82 234
e 82 248
e 83 89
e 83 96
e 83 108
e 83 109
e 83 111
e 83 114
e 83 117
e 83 124
e 83 133
e 83 136
e 83 164
e 83 170
e 83 179
e 83 182
e 83 191
e 83 193
e 83 213
e 83 222
e 83 227
e 83 250
e 84 112
e 84 120
e 84 130
e 84 152
e 84 161
e 84 166
e 84 176
e 84 180
e 84 183
e 84 190
e 84 191
e 84 199
e 84 204
e 84 232
e 84 233
e 85 130
e 85 139
e 85 142
e 85 144
e 85 149
e 85 157
e 85 163
e 85 167
e 85 172
e 85 181
e 85 187
e 85 200
e 85 209
e 85 214
e 85 240
e 85 244
e 85 250
e 86 98
e 86 123
e 86 128
e 86 130
e 86 131
e 86 140
e 86 142
e 86 146
e 86 152
e 86 195
e 86 201
e 86 219
e 86 222
e 86 228
e 86 234
e 87 102
e 87 121
e 87 125
e 87 129
e 87 148
e 87 162
e 87 163
e 87 173
e 87 175
e 87 181
e 87 223
e 87 236
e 87 242
e 88 111
e 88 131
e 88 133
e 88 141
e 88 145
e 88 160
e 88 170
e 88 188
e 88 200
e 88 205
e 88 231
e 88 234
e 88 235
e 88 236
e 88 240
e 88 250
e 89 95
e 89 96
e 89 103
e 89 123
e 89 149
e 89 158
e 89 192
e 89 195
e 89 199
e 89 229
e 89 245
e 90 105
e 90 110
e 90 122
e 90 142
e 90 147
e 90 153
e 90 164
e 90 183
e 90 184
e 90 188
e 90 189
e 90 193
e 90 204
e 90 214
e 90 219
e 90 223
e 90 224
e 90 226
e 90 227
e 90 232
e 90 234
e 90 237
e 90 239
e 90 248
e 91 108
e 91 127
e 91 164
e 91 168
e 91 170
e 91 176
e 91 177
e 91 181
e 91 185
e 91 195
e 91 201
e 91 203
e 91 215
e 91 219
e 91 221
e 91 222
e 91 243
e 91 244
e 91 248
e 92 93
e 92 97
e 92 105
e 92 108
e 92 110
e 92 134
e 92 138
e 92 143
e 92 152
e 92 157
e 92 158
e 92 185
e 92 187
e 92 192
e 92 199
e 92 206
e 92 221
e 92 222
e 92 232
e 93 96
e 93 106
e 93 132
e 93 147
e 93 150
e 93 155
e 93 169
e 93 182
e 93 196
e 93 213
e 93 218
e 93 220
e 93 222
e 93 236
e 93 247
e 94 155
e 94 166
e 94 168
e 94 186
e 94 193
e 94 200
e 94 203
e 94 205
e 94 212
e 94 216
e 94 220
e 94 230
e 95 112
e 95 123
e 95 126
e 95 163
e 95 179
e 95 184
e 95 197
e 95 198
e 95 207
e 95 209
e 95 214
e 95 227
e 95 233
e 95 235
e 95 237
e 96 104
e 96 112
e 96 115
e 96 136
e 96 143
e 96 148
e 96 151
e 96 157
e 96 158
e 96 161
e 96 170
e 96 183
e 96 205
e 96 242
e 96 249
e 97 98
e 97 109
e 97 114
e 97 125
e 97 126
e 97 149
e 97 178
e 97 187
e 97 191
e 97 222
e 97 248
e 98 99
e 98 116
e 98 145
e 98 146
e 98 153
e 98 171
e 98 172
e 98 176
e 98 186
e 98 197
e 98 216
e 98 226
e 98 228
e 98 241
e 99 109
e 99 112
e 99 118
e 99 119
e 99 143
e 99 148
e 99 150
e 99 151
e 99 185
e 99 192
e 99 204
e 99 211
e 99 234
e 99 241
e 99 242
e 100 105
e 100 113
e 100 135
e 100 137
e 100 145
e 100 151
e 100 152
e 100 173
e 100 178
e 100 182
e 100 197
e 100 198
e 100 199
e 100 227
e 100 244
e 101 107
e 101 160
e 101 191
e 101 209
e 101 236
e 101 240
e 101 246
e 102 110
e 102 114
e 102 124
e 102 127
e 102 128
e 102 134
e 102 158
e 102 161
e 102 179
e 102 180
e 102 212
e 102 224
e 102 232
e 102 243
e 102 245
e 102 250
e 103 107
e 103 108
e 103 111
e 103 114
e 103 122
e 103 128
e 103 143
e 103 144
e 103 149
e 103 152
e 103 160
e 103 180
e 103 186
e 103 193
e 103 203
e 103 204
e 103 214
e 103 232
e 103 236
e 104 110
e 104 159
e 104 176
e 104 185
e 104 193
e 104 200
e 104 236
e 104 248
e 104 249
e 105 135
e 105 141
e 105 147
e 105 157
e 105 177
e 105 203
e 105 205
e 105 207
e 105 209
e 105 214
e 105 224
e 105 226
e 105 227
e 106 143
e 106 148
e 106 183
e 106 195
e 106 203
e 106 208
e 106 213
e 106 220
e 106 237
e 106 247
e 107 115
e 107 135
e 107 158
e 107 167
e 107 190
e 107 201
e 107 211
e 107 221
e 107 226
e 107 227
e 107 234
e 107 237
e 108 117
e 108 129
e 108 134
e 108 143
e 108 156
e 108 162
e 108 169
e 108 172
e 108 176
e 108 183
e 108 195
e 108 217
e 108 221
e 108 238
e 109 127
e 109 141
e 109 151
e 109 159
e 109 165
e 109 166
e 109 212
e 109 220
e 109 222
e 109 246
e 110 140
e 110 155
e 110 156
e 110 169
e 110 171
e 110 191
e 110 203
e 110 208
e 110 209
e 110 211
e 110 218
e 110 219
e 110 220
e 110 240
e 110 247
e 111 125
e 111 128
e 111 137
e 111 140
e 111 142
e 111 145
e 111 148
e 111 200
e 111 208
e 111 238
e 111 246
e 111 247
e 111 248
e 112 148
e 112 150
e 112 151
e 112 152
e 112 168
e 112 169
e 112 187
e 112 197
e 112 219
e 112 222
e 112 238
e 112 248
e 113 124
e 113 135
e 113 136
e 113 155
e 113 158
e 113 160
e 113 161
e 113 175
e 113 180
e 113 181
e 113 188
e 113 191
e 113 197
e 113 198
e 113 204
e 113 215
e 113 235
e 113 236
e 113 238
e 113 241
e 113 245
e 114 117
e 114 153
e 114 154
e 114 160
e 114 165
e 114 170
e 114 176
e 114 181
e 114 187
e 114 191
e 114 214
e 114 218
e 114 239
e 114 243
e 114 250
e 115 124
e 115 133
e 115 149
e 115 169
e 115 182
e 115 187
e 115 203
e 115 204
e 115 207
e 115 213
e 115 217
e 115 229
e 115 237
e 116 117
e 116 123
e 116 125
e 116 127
e 116 135
e 116 138
e 116 141
e 116 149
e 116 151
e 116 155
e 116 169
e 116 185
e 116 188
e 116 249
e 117 135
e 117 151
e 117 153
e 117 159
e 117 166
e 117 170
e 117 172
e 117 178
e 117 184
e 117 189
e 117 205
e 117 210
e 117 214
e 117 236
e 117 245
e 118 122
e 118 125
e 118 135
e 118 145
e 118 150
e 118 170
e 118 175
e 118 176
e 118 185
e 118 195
e 118 203
e 118 210
e 118 216
e 118 223
e 118 237
e 118 239
e 118 247
e 119 120
e 119 150
e 119 168
e 119 169
e 119 182
e 119 189
e 119 221
e 119 244
e 120 134
e 120 138
e 120 160
e 120 205
e 120 208
e 120 212
e 120 228
e 120 230
e 120 233
e 120 239
e 121 132
e 121 144
e 121 145
e 121 151
e 121 161
e 121 162
e 121 163
e 121 189
e 121 197
e 121 201
e 121 202
e 121 211
e 121 226
e 121 229
e 121 230
e 121 237
e 121 249
e 122 140
e 122 150
e 122 151
e 122 152
e 122 154
e 122 161
e 122 166
e 122 175
e 122 178
e 122 185
e 122 196
e 122 198
e 122 202
e 122 219
e 122 229
e 122 246
e 122 248
e 123 124
e 123 135
e 123 136
e 123 141
e 123 144
e 123 148
e 123 152
e 123 155
e 123 165
e 123 188
e 123 192
e 123 197
e 123 211
e 123 213
e 123 219
e 123 231
e 123 240
e 123 250
e 124 137
e 124 146
e 124 156
e 124 197
e 124 200
e 124 235
e 124 238
e 124 242
e 124 243
e 124 244
e 125 135
e 125 136
e 125 144
e 125 148
e 125 173
e 125 175
e 125 185
e 125 210
e 125 215
e 125 217
e 125 225
e 126 132
e 126 135
e 126 137
e 126 160
e 126 183
e 126 187
e 126 195
e 126 198
e 126 213
e 127 129
e 127 139
e 127 140
e 127 141
e 127 143
e 127 159
e 127 160
e 127 179
e 127 192
e 127 215
e 127 223
e 127 226
e 127 244
e 127 247
e 128 137
e 128 138
e 128 148
e 128 150
e 128 168
e 128 200
e 128 207
e 128 210
e 128 213
e 128 233
e 128 235
e 128 236
e 128 242
e 129 131
e 129 134
e 129 139
e 129 151
e 129 159
e 129 163
e 129 168
e 129 172
e 129 189
e 129 192
e 129 199
e 129 224
e 129 227
e 129 232
e 129 246
e 129 248
e 130 146
e 130 151
e 130 158
e 130 168
e 130 199
e 130 204
e 130 211
e 130 213
e 130 228
e 130 233
e 130 235
e 130 248
e 130 249
e 131 132
e 131 133
e 131 135
e 131 142
e 131 159
e 131 170
e 131 180
e 131 187
e 131 191
e 131 192
e 131 194
e 131 195
e 131 196
e 131 199
e 131 200
e 131 202
e 131 206
e 131 210
e 131 213
e 131 228
e 131 231
e 132 133
e 132 137
e 132 143
e 132 145
e 132 157
e 132 158
e 132 163
e 132 171
e 132 174
e 132 182
e 132 183
e 132 200
e 132 215
e 132 223
e 133 148
e 133 161
e 133 162
e 133 172
e 133 175
e 133 184
e 133 190
e 133 195
e 133 210
e 133 213
e 133 234
e 134 136
e 134 142
e 134 144
e 134 159
e 134 167
e 134 169
e 134 175
e 134 178
e 134 185
e 134 188
e 134 202
e 134 207
e 134 222
e 134 240
e 134 244
e 135 143
e 135 144
e 135 146
e 135 157
e 135 165
e 135 169
e 135 171
e 135 175
e 135 184
e 135 190
e 135 191
e 135 196
e 135 198
e 135 201
e 135 204
e 135 208
e 135 215
e 135 226
e 135 228
e 135 240
e 136 153
e 136 189
e 136 198
e 136 201
e 136 211
e 136 213
e 136 231
e 136 243
e 137 141
e 137 151
e 137 154
e 137 165
e 137 194
e 137 198
e 137 222
e 137 226
e 137 237
e 137 238
e 138 144
e 138 155
e 138 184
e 138 191
e 138 194
e 138 241
e 139 157
e 139 167
e 139 174
e 139 186
e 139 187
e 139 199
e 139 200
e 139 202
e 139 219
e 139 222
e 139 229
e 140 156
e 140 158
e 140 171
e 140 179
e 140 182
e 140 192
e 140 207
e 140 208
e 140 218
e 140 224
e 140 225
e 140 231
e 140 244
e 140 246
e 141 146
e 141 154
e 141 167
e 141 174
e 141 176
e 141 184
e 141 187
e 141 192
e 141 193
e 141 195
e 141 207
e 141 208
e 141 211
e 141 212
e 141 218
e 141 221
e 141 231
e 141 238
e 141 240
e 142 148
e 142 155
e 142 161
e 142 169
e 142 193
e 142 196
e 142 212
e 142 213
e 142 247
e 142 249
e 143 148
e 143 152
e 143 155
e 143 180
e 143 197
e 143 201
e 143 203
e 143 211
e 143 212
e 143 228
e 143 236
e 143 238
e 143 241
e 143 246
e 144 152
e 144 204
e 144 208
e 144 209
e 144 210
e 144 214
e 144 217
e 144 223
e 145 150
e 145 170
e 145 177
e 145 183
e 145 185
e 145 192
e 145 208
e 145 237
e 145 238
e 145 242
e 145 244
e 146 151
e 146 157
e 146 165
e 146 179
e 146 187
e 146 188
e 146 189
e 146 202
e 146 236
e 146 244
e 146 248
e 147 155
e 147 161
e 147 162
e 147 164
e 147 180
e 147 194
e 147 196
e 147 197
e 147 211
e 148 149
e 148 152
e 148 153
e 148 162
e 148 187
e 148 217
e 148 222
e 148 225
e 148 236
e 148 240
e 148 245
e 149 150
e 149 163
e 149 169
e 149 173
e 149 176
e 149 214
e 149 218
e 149 228
e 149 229
e 150 153
e 150 158
e 150 164
e 150 166
e 150 168
e 150 175
e 150 183
e 150 184
e 150 192
e 150 194
e 150 215
e 150 223
e 150 240
e 150 241
e 151 156
e 151 158
e 151 168
e 151 170
e 151 188
e 151 203
e 151 229
e 151 250
e 152 154
e 152 173
e 152 183
e 152 193
e 152 206
e 152 212
e 152 223
e 152 227
e 152 231
e 153 160
e 153 165
e 153 188
e 153 200
e 153 208
e 153 216
e 153 217
e 153 231
e 153 236
e 154 155
e 154 156
e 154 162
e 154 175
e 154 185
e 154 189
e 154 192
e 154 201
e 154 212
e 154 233
e 154 234
e 154 241
e 154 245
e 155 208
e 155 213
e 155 222
e 155 223
e 155 229
e 155 239
e 156 162
e 156 163
e 156 176
e 156 186
e 156 209
e 156 213
e 156 219
e 156 227
e 156 232
e 156 237
e 156 244
e 157 162
e 157 176
e 157 179
e 157 184
e 157 194
e 157 236
e 157 249
e 158 170
e 158 179
e 158 187
e 158 202
e 158 229
e 158 239
e 159 166
e 159 183
e 159 196
e 159 211
e 159 226
e 159 227
e 159 235
e 159 247
e 160 165
e 160 177
e 160 195
e 160 200
e 160 207
e 160 211
e 160 214
e 160 221
e 160 230
e 160 235
e 161 167
e 161 177
e 161 181
e 161 183
e 161 214
e 161 221
e 161 222
e 161 223
e 161 241
e 161 245
e 161 250
e 162 183
e 162 185
e 162 189
e 162 197
e 162 201
e 162 217
e 162 221
e 162 228
e 162 236
e 162 247
e 162 250
e 163 169
e 163 177
e 163 180
e 163 192
e 163 213
e 163 214
e 163 241
e 163 243
e 164 175
e 164 176
e 164 183
e 164 212
e 164 223
e 164 241
e 165 179
e 165 184
e 165 199
e 165 215
e 165 216
e 165 217
e 165 219
e 165 221
e 165 231
e 165 241
e 165 243
e 165 245
e 166 171
e 166 185
e 166 197
e 166 212
e 166 240
e 167 189
e 167 206
e 167 235
e 167 236
e 168 172
e 168 177
e 168 191
e 168 192
e 168 212
e 168 214
e 168 221
e 168 227
e 168 237
e 168 245
e 168 246
e 169 171
e 169 174
e 169 189
e 169 190
e 169 199
e 169 205
e 169 207
e 169 209
e 169 214
e 169 217
e 169 225
e 169 241
e 169 249
e 170 173
e 170 174
e 170 182
e 170 209
e 170 211
e 170 223
e 171 190
e 171 206
e 171 231
e 171 237
e 171 243
e 171 245
e 172 173
e 172 178
e 172 195
e 172 207
e 172 211
e 172 223
e 173 179
e 173 185
e 173 209
e 173 211
e 173 227
e 173 233
e 173 244
e 173 246
e 173 250
e 174 179
e 174 187
e 174 193
e 174 194
e 174 197
e 174 210
e 174 211
e 174 223
e 174 226
e 175 176
e 175 186
e 175 217
e 175 218
e 175 221
e 175 248
e 176 177
e 176 180
e 176 183
e 176 198
e 176 203
e 176 206
e 176 207
e 176 208
e 176 217
e 176 230
e 176 239
e 176 241
e 177 178
e 177 180
e 177 182
e 177 193
e 177 200
e 177 208
e 177 217
e 177 219
e 177 227
e 177 230
e 177 232
e 178 181
e 178 193
e 178 196
e 178 201
e 178 236
e 178 239
e 178 244
e 178 247
e 179 184
e 179 187
e 179 201
e 179 212
e 179 225
e 179 227
e 179 234
e 179 236
e 179 237
e 179 249
e 180 184
e 180 185
e 180 193
e 180 195
e 180 204
e 180 208
e 180 229
e 180 237
e 180 238
e 180 246
e 181 195
e 181 210
e 181 218
e 181 221
e 181 230
e 181 232
e 182 184
e 182 214
e 182 222
e 182 233
e 182 240
e 182 250
e 183 185
e 183 199
e 183 201
e 183 208
e 183 210
e 183 211
e 183 214
e 183 231
e 183 238
e 184 193
e 184 209
e 184 219
e 184 227
e 185 186
e 185 189
e 185 203
e 185 212
e 185 217
e 185 224
e 185 236
e 186 214
e 186 229
e 186 233
e 186 236
e 186 241
e 187 200
e 187 213
e 187 231
e 187 233
e 187 246
e 187 247
e 187 249
e 187 250
e 188 197
e 188 199
e 188 216
e 188 218
e 188 246
e 188 250
e 189 190
e 189 193
e 189 197
e 189 207
e 189 214
e 189 224
e 189 245
e 190 197
e 190 205
e 190 212
e 190 218
e 190 237
e 190 239
e 190 243
e 191 195
e 191 198
e 191 205
e 191 225
e 191 232
e 191 235
e 191 249
e 192 205
e 192 208
e 192 210
e 192 221
e 192 222
e 192 249
e 193 197
e 193 213
e 193 223
e 193 232
e 193 241
e 193 244
e 193 249
e 194 220
e 194 232
e 194 236
e 194 250
e 195 219
e 195 222
e 195 229
e 196 199
e 196 210
e 196 240
e 196 247
e 196 248
e 197 201
e 197 202
e 197 221
e 197 231
e 197 233
e 197 236
e 198 208
e 198 216
e 198 220
e 198 224
e 199 205
e 199 213
e 199 215
e 199 221
e 199 227
e 199 239
e 200 203
e 200 212
e 200 228
e 201 202
e 201 203
e 201 244
e 202 210
e 202 218
e 202 221
e 202 227
e 203 212
e 203 213
e 203 221
e 203 231
e 203 232
e 203 236
e 203 243
e 204 232
e 205 217
e 205 221
e 205 223
e 205 233
e 205 239
e 205 242
e 205 247
e 206 225
e 206 228
e 206 241
e 206 243
e 207 229
e 207 235
e 207 238
e 208 229
e 209 230
e 209 241
e 209 247
e 209 248
e 210 213
e 210 219
e 210 220
e 210 229
e 210 236
e 211 222
e 211 235
e 211 236
e 211 240
e 212 216
e 212 217
e 212 220
e 212 223
e 213 224
e 213 235
e 213 236
e 214 228
e 214 230
e 214 231
e 214 234
e 214 246
e 215 221
e 215 240
e 215 242
e 216 217
e 216 218
e 216 225
e 217 221
e 218 221
e 218 223
e 218 243
e 218 249
e 219 224
e 219 234
e 219 235
e 219 236
e 220 229
e 220 232
e 220 235
e 221 230
e 221 250
e 222 237
e 222 239
e 223 244
e 224 245
e 225 228
e 225 229
e 225 234
e 225 236
e 225 238
e 225 241
e 226 231
e 227 235
e 227 240
e 227 248
e 228 236
e 228 237
e 228 245
e 228 250
e 230 234
e 230 242
e 230 244
e 231 232
e 231 248
e 232 242
e 232 246
e 233 239
e 233 250
e 234 240
e 234 245
e 235 237
e 235 239
e 235 242
e 235 246
e 235 247
e 235 249
e 236 242
e 237 240
e 237 244
e 238 250
e 239 243
e 239 244
e 239 245
e 240 249
e 243 245
e 244 246
e 246 247
